\ This file has been generated by DOcplex
\ ENCODING=ISO-8859-1
\Problem name: random_problem.lp

Minimize
 obj: 56 x0 + 28 x1 - 86 x2 - 43 x3 - 1014 x4 - 507 x5 + 56 x6 + 28 x7 + [
      488 x0^2 + 488 x0*x1 + 416 x0*x2 + 208 x0*x3 + 80 x0*x4 + 40 x0*x5
      + 528 x0*x6 + 264 x0*x7 + 122 x1^2 + 208 x1*x2 + 104 x1*x3 + 40 x1*x4
      + 20 x1*x5 + 264 x1*x6 + 132 x1*x7 + 496 x2^2 + 496 x2*x3 + 672 x2*x4
      + 336 x2*x5 + 480 x2*x6 + 240 x2*x7 + 124 x3^2 + 336 x3*x4 + 168 x3*x5
      + 240 x3*x6 + 120 x3*x7 + 4880 x4^2 + 4880 x4*x5 + 1312 x4*x6 + 656 x4*x7
      + 1220 x5^2 + 656 x5*x6 + 328 x5*x7 + 536 x6^2 + 536 x6*x7 + 134 x7^2 ]/2
Subject To
 c0: 2 x0 + x1 + 2 x2 + x3 + 2 x4 + x5 + 2 x6 + x7 = 3

Bounds
 0 <= x0 <= 1
 0 <= x1 <= 1
 0 <= x2 <= 1
 0 <= x3 <= 1
 0 <= x4 <= 1
 0 <= x5 <= 1
 0 <= x6 <= 1
 0 <= x7 <= 1

Binaries
 x0 x1 x2 x3 x4 x5 x6 x7
End
